% demand
num_movements = 41;
loading_factor = [1700, 1450, 1400, 1250, 1750, 1250, 1250, 950, 1550, 950, 1750, 950, 1200, 1800, 1500, 1500, 1150, 1550, 1000, 1600, 2000, 1450, 1400, 1850, 1050, 800, 900, 1100, 1500, 1850, 1050, 1000, 1150, 1150, 1200, 1850, 1700, 1700, 1800, 1500, 1550];
pickup_time = [0, 0, 0, 0, 0, 0, 0, 0, 1, 2, 3, 3, 3, 3, 4, 4, 4, 5, 5, 5, 5, 5, 7, 7, 7, 7, 7, 9, 9, 9, 9, 9, 10, 10, 10, 11, 11, 11, 11, 11, 12];
delivery_time = [2, 2, 1, 2, 2, 1, 2, 2, 3, 3, 5, 5, 5, 5, 5, 9, 7, 6, 9, 7, 9, 6, 9, 9, 9, 9, 9, 12, 11, 11, 11, 12, 11, 11, 11, 12, 13, 12, 13, 13, 13];

% transporter definition
total_capacity = 11000;
num_decks = 4;
capacity = [3000, 3000, 1000, 4000];

% ways out of decks
num_ways_out = 2;
paths_out = array3d(decks, ways_out, decks, [
% ways out of deck d1
2, 4, 0, 0, 3, 4, 0, 0, 

% ways out of deck d2
4, 0, 0, 0, 0, 0, 0, 0,	

% ways out of deck d3
4, 0, 0, 0, 0, 0, 0, 0,	

% ways out of deck d4
0, 0, 0, 0,	0, 0, 0, 0,	

]);

